\ENCODING=ISO-8859-1
\Problem name: IloCplex

Minimize
 obj: x1 + x2 + x3 + x4 + x5 + x6 + x7 + x8 + x9 + x10 + x11 + x12 + x13
      + 1000000000000 x14 + x15 + x16 + x17 + x18 + x19 + x20 + x21 + x22 + x23
      + x24 + x25 + x26 + x27 + x28 + x29 + x30 + x31 + x32 + x33
      + 1000000000000 x34 + 1000000000000 x35 + x36 + x37 + x38 + x39 + x40
      + x41 + x42 + x43 + x44 + x45 + x46 + x47 + x48 + x49 + x50 + x51 + x52
      + x53 + x54 + x55 + x56 + x57 + x58 + x59 + x60 + x61 + x62 + x63 + x64
      + x65 + x66 + x67 + x68 + x69 + x70 + x71 + x72 + x73 + x74 + x75 + x76
      + x77 + x78 + x79 + x80 + x81 + x82 + x83 + x84 + x85 + x86 + x87 + x88
      + x89 + x90 + x91 + x92 + x93 + x94 + x95 + x96 + x97 + x98 + x99 + x100
      + x101 + x102 + x103 + x104 + x105 + x106 + x107 + x108 + x109 + x110
      + x111 + x112 + x113 + x114 + x115 + x116 + x117 + x118 + x119 + x120
      + x121 + x122 + x123 + x124 + x125 + x126 + x127 + x128 + x129 + x130
      + x131 + x132 + x133 + x134 + x135 + x136 + x137 + x138 + x139 + x140
      + x141 + x142 + x143 + x144 + x145 + x146 + x147 + x148 + x149 + x150
      + x151 + x152 + x153 + x154 + x155 + x156 + x157 + x158 + x159 + x160
      + x161 + x162 + x163 + x164 + x165 + x166 + x167 + x168 + x169 + x170
      + x171 + x172 + x173 + x174 + x175 + x176 + x177 + x178 + x179 + x180
      + x181 + x182 + x183 + x184 + x185 + x186 + x187 + x188 + x189 + x190
      + x191 + x192 + x193 + x194 + x195 + x196 + x197 + x198 + x199 + x200
      + x201 + x202 + x203 + x204 + x205 + x206 + x207 + x208 + x209 + x210
      + x211 + x212 + x213 + x214 + x215
Subject To
 c1:  x1  = 1
 c2:  x2  = 1
 c3:  x3  = 1
 c4:  x4  = 1
 c5:  x5 + x215  = 1
 c6:  x6  = 1
 c7:  x7 + x178  = 1
 c8:  x8 + x165 + x177 + x211  = 1
 c9:  x9 + x161 + x164 + x173  = 1
 c10: x10 + x156 + x160 + x172  = 1
 c11: x11 + x143 + x155 + x170  = 1
 c12: x12 + x138 + x140 + x154 + x162 + x188 + x191  = 1
 c13: x13 + x133 + x137 + x157  = 1
 c14: x14 + x130 + x131 + x153 + x194 + x210  = 1
 c15: x15 + x125 + x126 + x127 + x129 + x175 + x208 + x209  = 1
 c16: x16 + x120 + x124 + x134 + x135 + x166 + x167 + x186 + x212  = 1
 c17: x17 + x114 + x119 + x132 + x139 + x193  = 1
 c18: x18 + x112 + x113 + x141 + x145 + x171 + x181 + x195 + x198 + x199 + x200
      + x201 + x202 + x203 + x204 + x205  = 1
 c19: x19 + x107 + x111 + x142 + x148 + x169 + x197  = 1
 c20: x20 + x104 + x105 + x106 + x159 + x163 + x187  = 1
 c21: x21 + x100 + x101 + x102 + x108 + x117 + x123 + x136 + x147 + x207  = 1
 c22: x22 + x97 + x98 + x115 + x121 + x144 + x146  = 1
 c23: x23 + x95 + x96 + x146 + x190 + x196  = 1
 c24: x24 + x92 + x94 + x96 + x147 + x180 + x192 + x206  = 1
 c25: x25 + x92 + x94 + x95 + x136 + x144 + x168 + x182 + x184 + x187  = 1
 c26: x26 + x85 + x90 + x91 + x116 + x118 + x121 + x158 + x163 + x176  = 1
 c27: x27 + x88 + x90 + x98 + x109 + x149 + x183 + x214  = 1
 c28: x28 + x84 + x88 + x93 + x110 + x128 + x151 + x179 + x213  = 1
 c29: x29 + x81 + x84 + x91 + x108 + x114 + x167  = 1
 c30: x30 + x62 + x81 + x85 + x99 + x110 + x117 + x149 + x150 + x151 + x166
      + x182 + x193  = 1
 c31: x31 + x81 + x83 + x86 + x87 + x89 + x103 + x105 + x116 + x158 + x169
      + x171 + x196 + x213 + x214  = 1
 c32: x32 + x78 + x79 + x80 + x87 + x93 + x112 + x152 + x174 + x175 + x179
      + x183 + x186 + x192  = 1
 c33: x33 + x61 + x76 + x77 + x78 + x89 + x103 + x106 + x111 + x122 + x127
      + x176 + x179 + x183 + x184 + x185 + x189 + x195 + x198 + x199 + x200
      + x201 + x202 + x203 + x204 + x205 + x206 + x207 + x212 + x213 + x214
       = 1
 c34: x34 + x74 + x75 + x76 + x77 + x79 + x83 + x113 + x122 + x125 + x131
      + x168 + x185 + x189  = 1
 c35: x35 + x72 + x74 + x75 + x78 + x82 + x86 + x97 + x118 + x120 + x158 + x174
      + x180 + x190 + x210  = 1
 c36: x36 + x68 + x69 + x72 + x73 + x79 + x82 + x103 + x128 + x129 + x149
      + x150 + x151 + x152 + x153 + x168 + x184  = 1
 c37: x37 + x65 + x68 + x69 + x71 + x77 + x82 + x100 + x109 + x115 + x116
      + x122 + x124 + x141 + x142 + x157  = 1
 c38: x38 + x60 + x64 + x66 + x67 + x68 + x76 + x80 + x85 + x101 + x123 + x148
      + x154 + x159  = 1
 c39: x39 + x60 + x64 + x65 + x67 + x69 + x73 + x80 + x91 + x102 + x104 + x109
      + x110 + x119 + x123 + x137 + x180 + x182 + x190 + x191 + x192 + x206
       = 1
 c40: x40 + x60 + x64 + x65 + x66 + x70 + x71 + x74 + x89 + x99 + x101 + x107
      + x133 + x139 + x174 + x176 + x189  = 1
 c41: x41 + x60 + x63 + x66 + x67 + x70 + x71 + x72 + x73 + x75 + x83 + x87
      + x97 + x104 + x128 + x135 + x145 + x152 + x181 + x185 + x188 + x189
      + x194 + x196 + x197 + x209  = 1
 c42: x42 + x52 + x53 + x54 + x55 + x56 + x57 + x58 + x59 + x61 + x63 + x64
      + x68 + x70 + x86 + x88 + x99 + x102 + x150 + x152 + x159 + x162 + x174
      + x185 + x208  = 1
 c43: x43 + x51 + x52 + x53 + x55 + x56 + x57 + x58 + x59 + x61 + x62 + x66
      + x70 + x75 + x82 + x84 + x93 + x107 + x118 + x122 + x132 + x134 + x138
      + x181 + x197 + x207  = 1
 c44: x44 + x51 + x52 + x53 + x54 + x56 + x57 + x58 + x59 + x61 + x62 + x63
      + x71 + x73 + x76 + x80 + x83 + x90 + x99 + x103 + x105 + x130 + x142
      + x156  = 1
 c45: x45 + x51 + x52 + x53 + x54 + x55 + x57 + x58 + x59 + x61 + x62 + x67
      + x71 + x72 + x79 + x89 + x100 + x115 + x118 + x126 + x130 + x132 + x140
      + x145 + x148 + x150 + x155 + x172 + x173  = 1
 c46: x46 + x51 + x52 + x53 + x54 + x55 + x56 + x58 + x59 + x62 + x63 + x65
      + x67 + x70 + x73 + x74 + x77 + x86 + x93 + x106 + x108 + x115 + x117
      + x126 + x135 + x139 + x141 + x143 + x160 + x164 + x165  = 1
 c47: x47 + x51 + x52 + x53 + x54 + x55 + x56 + x57 + x59 + x62 + x63 + x64
      + x69 + x84 + x87 + x92 + x99 + x109 + x111 + x113 + x128 + x134 + x140
      + x161  = 1
 c48: x48 + x51 + x52 + x53 + x54 + x55 + x56 + x57 + x58 + x60 + x66 + x67
      + x69 + x70 + x74 + x78 + x83 + x98 + x100 + x112 + x119 + x121 + x150
      + x170 + x195 + x198 + x199 + x200 + x201 + x202 + x208 + x209 + x211
      + x215  = 1
 c49: x49 + x51 + x52 + x54 + x55 + x56 + x57 + x58 + x59 + x61 + x63 + x65
      + x66 + x69 + x72 + x77 + x80 + x87 + x94 + x95 + x124 + x126 + x138
      + x169 + x170 + x171 + x176 + x177 + x178 + x204  = 1
 c50: x50 + x51 + x53 + x54 + x55 + x56 + x57 + x58 + x59 + x60 + x65 + x68
      + x72 + x75 + x76 + x81 + x90 + x100 + x102 + x106 + x116 + x119 + x120
      + x125 + x132 + x133 + x144 + x145 + x160 + x161 + x177 + x186 + x205
       = 1
End
